p cnf 260 1009
c p weight 13 1 0
c p weight -13 1 0
c p weight 14 0 0
c p weight -14 1 0
c p weight -11 1 0
c p weight 11 -1 0
c p weight 17 6.12323399573676603586882014729198302312846062338790031898128063403419218957424163818359375E-17 0
c p weight -17 1 0
c p weight 18 1 0
c p weight -18 1 0
c p weight -15 1 0
c p weight 15 -1 0
c p weight 21 -0.707106781186547461715008466853760182857513427734375 0
c p weight -21 1 0
c p weight 22 0.70710678118654757273731092936941422522068023681640625 0
c p weight -22 1 0
c p weight -19 1 0
c p weight 19 -1 0
c p weight 25 6.12323399573676603586882014729198302312846062338790031898128063403419218957424163818359375E-17 0
c p weight -25 1 0
c p weight 26 1 0
c p weight -26 1 0
c p weight -23 1 0
c p weight 23 -1 0
c p weight 29 -1 0
c p weight -29 1 0
c p weight 30 3.673940397442059375002259206809000622711899723162043418511757408850826323032379150390625E-16 0
c p weight -30 1 0
c p weight -27 1 0
c p weight 27 -1 0
c p weight -31 1 0
c p weight 31 -1 0
c p weight 35 6.12323399573676603586882014729198302312846062338790031898128063403419218957424163818359375E-17 0
c p weight -35 1 0
c p weight 36 1 0
c p weight -36 1 0
c p weight -33 1 0
c p weight 33 -1 0
c p weight -37 1 0
c p weight 37 -1 0
c p weight 41 1 0
c p weight -41 1 0
c p weight 42 0 0
c p weight -42 1 0
c p weight -39 1 0
c p weight 39 -1 0
c p weight 45 6.12323399573676603586882014729198302312846062338790031898128063403419218957424163818359375E-17 0
c p weight -45 1 0
c p weight 46 1 0
c p weight -46 1 0
c p weight -43 1 0
c p weight 43 -1 0
c p weight 49 -0.577350269189625731058868041145615279674530029296875 0
c p weight -49 1 0
c p weight 50 0.8164965809277260344600790631375275552272796630859375 0
c p weight -50 1 0
c p weight -47 1 0
c p weight 47 -1 0
c p weight 53 6.12323399573676603586882014729198302312846062338790031898128063403419218957424163818359375E-17 0
c p weight -53 1 0
c p weight 54 1 0
c p weight -54 1 0
c p weight -51 1 0
c p weight 51 -1 0
c p weight 57 -1 0
c p weight -57 1 0
c p weight 58 3.673940397442059375002259206809000622711899723162043418511757408850826323032379150390625E-16 0
c p weight -58 1 0
c p weight -55 1 0
c p weight 55 -1 0
c p weight -59 1 0
c p weight 59 -1 0
c p weight 63 6.12323399573676603586882014729198302312846062338790031898128063403419218957424163818359375E-17 0
c p weight -63 1 0
c p weight 64 1 0
c p weight -64 1 0
c p weight -61 1 0
c p weight 61 -1 0
c p weight -65 1 0
c p weight 65 -1 0
c p weight 69 1 0
c p weight -69 1 0
c p weight 70 0 0
c p weight -70 1 0
c p weight -67 1 0
c p weight 67 -1 0
c p weight 73 6.12323399573676603586882014729198302312846062338790031898128063403419218957424163818359375E-17 0
c p weight -73 1 0
c p weight 74 1 0
c p weight -74 1 0
c p weight -71 1 0
c p weight 71 -1 0
c p weight 77 -0.499999999999999833466546306226518936455249786376953125 0
c p weight -77 1 0
c p weight 78 0.86602540378443870761060452423407696187496185302734375 0
c p weight -78 1 0
c p weight -75 1 0
c p weight 75 -1 0
c p weight 81 6.12323399573676603586882014729198302312846062338790031898128063403419218957424163818359375E-17 0
c p weight -81 1 0
c p weight 82 1 0
c p weight -82 1 0
c p weight -79 1 0
c p weight 79 -1 0
c p weight 85 -1 0
c p weight -85 1 0
c p weight 86 3.673940397442059375002259206809000622711899723162043418511757408850826323032379150390625E-16 0
c p weight -86 1 0
c p weight -83 1 0
c p weight 83 -1 0
c p weight -87 1 0
c p weight 87 -1 0
c p weight 91 6.12323399573676603586882014729198302312846062338790031898128063403419218957424163818359375E-17 0
c p weight -91 1 0
c p weight 92 1 0
c p weight -92 1 0
c p weight -89 1 0
c p weight 89 -1 0
c p weight -93 1 0
c p weight 93 -1 0
c p weight 97 1 0
c p weight -97 1 0
c p weight 98 0 0
c p weight -98 1 0
c p weight -95 1 0
c p weight 95 -1 0
c p weight 101 6.12323399573676603586882014729198302312846062338790031898128063403419218957424163818359375E-17 0
c p weight -101 1 0
c p weight 102 1 0
c p weight -102 1 0
c p weight -99 1 0
c p weight 99 -1 0
c p weight 105 -0.447213595499957927703604809721582569181919097900390625 0
c p weight -105 1 0
c p weight 106 0.89442719099991585540720961944316513836383819580078125 0
c p weight -106 1 0
c p weight -103 1 0
c p weight 103 -1 0
c p weight 109 6.12323399573676603586882014729198302312846062338790031898128063403419218957424163818359375E-17 0
c p weight -109 1 0
c p weight 110 1 0
c p weight -110 1 0
c p weight -107 1 0
c p weight 107 -1 0
c p weight 113 -1 0
c p weight -113 1 0
c p weight 114 3.673940397442059375002259206809000622711899723162043418511757408850826323032379150390625E-16 0
c p weight -114 1 0
c p weight -111 1 0
c p weight 111 -1 0
c p weight -115 1 0
c p weight 115 -1 0
c p weight 119 6.12323399573676603586882014729198302312846062338790031898128063403419218957424163818359375E-17 0
c p weight -119 1 0
c p weight 120 1 0
c p weight -120 1 0
c p weight -117 1 0
c p weight 117 -1 0
c p weight -121 1 0
c p weight 121 -1 0
c p weight -123 1 0
c p weight 123 -1 0
c p weight -124 1 0
c p weight 124 -1 0
c p weight -127 1 0
c p weight 127 -1 0
c p weight 131 6.12323399573676603586882014729198302312846062338790031898128063403419218957424163818359375E-17 0
c p weight -131 1 0
c p weight 132 1 0
c p weight -132 1 0
c p weight -129 1 0
c p weight 129 -1 0
c p weight -133 1 0
c p weight 133 -1 0
c p weight 137 1 0
c p weight -137 1 0
c p weight 138 0 0
c p weight -138 1 0
c p weight -135 1 0
c p weight 135 -1 0
c p weight 141 6.12323399573676603586882014729198302312846062338790031898128063403419218957424163818359375E-17 0
c p weight -141 1 0
c p weight 142 1 0
c p weight -142 1 0
c p weight -139 1 0
c p weight 139 -1 0
c p weight 145 -0.447213595499958149748209734752890653908252716064453125 0
c p weight -145 1 0
c p weight 146 -0.89442719099991574438490715692751109600067138671875 0
c p weight -146 1 0
c p weight -143 1 0
c p weight 143 -1 0
c p weight 149 6.12323399573676603586882014729198302312846062338790031898128063403419218957424163818359375E-17 0
c p weight -149 1 0
c p weight 150 1 0
c p weight -150 1 0
c p weight -147 1 0
c p weight 147 -1 0
c p weight 153 -1 0
c p weight -153 1 0
c p weight 154 3.673940397442059375002259206809000622711899723162043418511757408850826323032379150390625E-16 0
c p weight -154 1 0
c p weight -151 1 0
c p weight 151 -1 0
c p weight -155 1 0
c p weight 155 -1 0
c p weight -158 1 0
c p weight 158 -1 0
c p weight 162 6.12323399573676603586882014729198302312846062338790031898128063403419218957424163818359375E-17 0
c p weight -162 1 0
c p weight 163 1 0
c p weight -163 1 0
c p weight -160 1 0
c p weight 160 -1 0
c p weight -164 1 0
c p weight 164 -1 0
c p weight 168 1 0
c p weight -168 1 0
c p weight 169 0 0
c p weight -169 1 0
c p weight -166 1 0
c p weight 166 -1 0
c p weight 172 6.12323399573676603586882014729198302312846062338790031898128063403419218957424163818359375E-17 0
c p weight -172 1 0
c p weight 173 1 0
c p weight -173 1 0
c p weight -170 1 0
c p weight 170 -1 0
c p weight 176 -0.500000000000000444089209850062616169452667236328125 0
c p weight -176 1 0
c p weight 177 -0.86602540378443837454369713668711483478546142578125 0
c p weight -177 1 0
c p weight -174 1 0
c p weight 174 -1 0
c p weight 180 6.12323399573676603586882014729198302312846062338790031898128063403419218957424163818359375E-17 0
c p weight -180 1 0
c p weight 181 1 0
c p weight -181 1 0
c p weight -178 1 0
c p weight 178 -1 0
c p weight 184 -1 0
c p weight -184 1 0
c p weight 185 3.673940397442059375002259206809000622711899723162043418511757408850826323032379150390625E-16 0
c p weight -185 1 0
c p weight -182 1 0
c p weight 182 -1 0
c p weight -186 1 0
c p weight 186 -1 0
c p weight -189 1 0
c p weight 189 -1 0
c p weight 193 6.12323399573676603586882014729198302312846062338790031898128063403419218957424163818359375E-17 0
c p weight -193 1 0
c p weight 194 1 0
c p weight -194 1 0
c p weight -191 1 0
c p weight 191 -1 0
c p weight -195 1 0
c p weight 195 -1 0
c p weight 199 1 0
c p weight -199 1 0
c p weight 200 0 0
c p weight -200 1 0
c p weight -197 1 0
c p weight 197 -1 0
c p weight 203 6.12323399573676603586882014729198302312846062338790031898128063403419218957424163818359375E-17 0
c p weight -203 1 0
c p weight 204 1 0
c p weight -204 1 0
c p weight -201 1 0
c p weight 201 -1 0
c p weight 207 -0.57735026918962562003656557862996123731136322021484375 0
c p weight -207 1 0
c p weight 208 -0.81649658092772614548238152565318159759044647216796875 0
c p weight -208 1 0
c p weight -205 1 0
c p weight 205 -1 0
c p weight 211 6.12323399573676603586882014729198302312846062338790031898128063403419218957424163818359375E-17 0
c p weight -211 1 0
c p weight 212 1 0
c p weight -212 1 0
c p weight -209 1 0
c p weight 209 -1 0
c p weight 215 -1 0
c p weight -215 1 0
c p weight 216 3.673940397442059375002259206809000622711899723162043418511757408850826323032379150390625E-16 0
c p weight -216 1 0
c p weight -213 1 0
c p weight 213 -1 0
c p weight -217 1 0
c p weight 217 -1 0
c p weight -220 1 0
c p weight 220 -1 0
c p weight 224 6.12323399573676603586882014729198302312846062338790031898128063403419218957424163818359375E-17 0
c p weight -224 1 0
c p weight 225 1 0
c p weight -225 1 0
c p weight -222 1 0
c p weight 222 -1 0
c p weight -226 1 0
c p weight 226 -1 0
c p weight 230 1 0
c p weight -230 1 0
c p weight 231 0 0
c p weight -231 1 0
c p weight -228 1 0
c p weight 228 -1 0
c p weight 234 6.12323399573676603586882014729198302312846062338790031898128063403419218957424163818359375E-17 0
c p weight -234 1 0
c p weight 235 1 0
c p weight -235 1 0
c p weight -232 1 0
c p weight 232 -1 0
c p weight 238 -0.7071067811865476837596133918850682675838470458984375 0
c p weight -238 1 0
c p weight 239 -0.707106781186547461715008466853760182857513427734375 0
c p weight -239 1 0
c p weight -236 1 0
c p weight 236 -1 0
c p weight 242 6.12323399573676603586882014729198302312846062338790031898128063403419218957424163818359375E-17 0
c p weight -242 1 0
c p weight 243 1 0
c p weight -243 1 0
c p weight -240 1 0
c p weight 240 -1 0
c p weight 246 -1 0
c p weight -246 1 0
c p weight 247 3.673940397442059375002259206809000622711899723162043418511757408850826323032379150390625E-16 0
c p weight -247 1 0
c p weight -244 1 0
c p weight 244 -1 0
c p weight -248 1 0
c p weight 248 -1 0
c p weight -251 1 0
c p weight 251 -1 0
c p weight -254 1 0
c p weight 254 -1 0
c p weight -257 1 0
c p weight 257 -1 0
c p weight 260 0.5 0
c p weight -260 1 0
260 0
-9 0
-7 0
-5 0
-3 0
-1 0
-11 1 0
-11 2 0
-11 -12 0
11 12 -1 -2 0
12 1 -2 0
-12 1 2 0
-13 1 0
12 -13 -2 0
-12 -13 2 0
12 13 -1 2 0
-12 13 -1 -2 0
-14 1 0
12 -14 2 0
-12 -14 -2 0
12 14 -1 -2 0
-12 14 -1 2 0
-15 16 0
-15 12 0
-15 -1 0
15 -16 1 -12 0
16 -1 12 0
-16 1 12 0
-17 12 0
16 -17 -1 0
-16 -17 1 0
16 17 1 -12 0
-16 17 -1 -12 0
-18 12 0
16 -18 1 0
-16 -18 -1 0
16 18 -1 -12 0
-16 18 1 -12 0
-19 16 0
-19 12 0
-19 -20 0
19 20 -16 -12 0
20 16 -12 0
-20 16 12 0
-21 16 0
20 -21 -12 0
-20 -21 12 0
20 21 -16 12 0
-20 21 -16 -12 0
-22 16 0
20 -22 12 0
-20 -22 -12 0
20 22 -16 -12 0
-20 22 -16 12 0
-23 24 0
-23 20 0
-23 -16 0
23 -24 16 -20 0
24 -16 20 0
-24 16 20 0
-25 20 0
24 -25 -16 0
-24 -25 16 0
24 25 16 -20 0
-24 25 -16 -20 0
-26 20 0
24 -26 16 0
-24 -26 -16 0
24 26 -16 -20 0
-24 26 16 -20 0
-27 24 0
-27 20 0
-27 -28 0
27 28 -24 -20 0
28 24 -20 0
-28 24 20 0
-29 24 0
28 -29 -20 0
-28 -29 20 0
28 29 -24 20 0
-28 29 -24 -20 0
-30 24 0
28 -30 20 0
-28 -30 -20 0
28 30 -24 -20 0
-28 30 -24 20 0
-31 24 0
-31 28 0
31 -24 -28 0
32 24 -28 0
32 -24 28 0
-32 24 28 0
-32 -24 -28 0
-33 34 0
-33 32 0
-33 -24 0
33 -34 24 -32 0
34 -24 32 0
-34 24 32 0
-35 32 0
34 -35 -24 0
-34 -35 24 0
34 35 24 -32 0
-34 35 -24 -32 0
-36 32 0
34 -36 24 0
-34 -36 -24 0
34 36 -24 -32 0
-34 36 24 -32 0
-37 34 0
-37 32 0
37 -34 -32 0
38 34 -32 0
38 -34 32 0
-38 34 32 0
-38 -34 -32 0
-39 3 0
-39 4 0
-39 -40 0
39 40 -3 -4 0
40 3 -4 0
-40 3 4 0
-41 3 0
40 -41 -4 0
-40 -41 4 0
40 41 -3 4 0
-40 41 -3 -4 0
-42 3 0
40 -42 4 0
-40 -42 -4 0
40 42 -3 -4 0
-40 42 -3 4 0
-43 44 0
-43 40 0
-43 -3 0
43 -44 3 -40 0
44 -3 40 0
-44 3 40 0
-45 40 0
44 -45 -3 0
-44 -45 3 0
44 45 3 -40 0
-44 45 -3 -40 0
-46 40 0
44 -46 3 0
-44 -46 -3 0
44 46 -3 -40 0
-44 46 3 -40 0
-47 44 0
-47 40 0
-47 -48 0
47 48 -44 -40 0
48 44 -40 0
-48 44 40 0
-49 44 0
48 -49 -40 0
-48 -49 40 0
48 49 -44 40 0
-48 49 -44 -40 0
-50 44 0
48 -50 40 0
-48 -50 -40 0
48 50 -44 -40 0
-48 50 -44 40 0
-51 52 0
-51 48 0
-51 -44 0
51 -52 44 -48 0
52 -44 48 0
-52 44 48 0
-53 48 0
52 -53 -44 0
-52 -53 44 0
52 53 44 -48 0
-52 53 -44 -48 0
-54 48 0
52 -54 44 0
-52 -54 -44 0
52 54 -44 -48 0
-52 54 44 -48 0
-55 52 0
-55 48 0
-55 -56 0
55 56 -52 -48 0
56 52 -48 0
-56 52 48 0
-57 52 0
56 -57 -48 0
-56 -57 48 0
56 57 -52 48 0
-56 57 -52 -48 0
-58 52 0
56 -58 48 0
-56 -58 -48 0
56 58 -52 -48 0
-56 58 -52 48 0
-59 52 0
-59 56 0
59 -52 -56 0
60 52 -56 0
60 -52 56 0
-60 52 56 0
-60 -52 -56 0
-61 62 0
-61 60 0
-61 -52 0
61 -62 52 -60 0
62 -52 60 0
-62 52 60 0
-63 60 0
62 -63 -52 0
-62 -63 52 0
62 63 52 -60 0
-62 63 -52 -60 0
-64 60 0
62 -64 52 0
-62 -64 -52 0
62 64 -52 -60 0
-62 64 52 -60 0
-65 62 0
-65 60 0
65 -62 -60 0
66 62 -60 0
66 -62 60 0
-66 62 60 0
-66 -62 -60 0
-67 5 0
-67 6 0
-67 -68 0
67 68 -5 -6 0
68 5 -6 0
-68 5 6 0
-69 5 0
68 -69 -6 0
-68 -69 6 0
68 69 -5 6 0
-68 69 -5 -6 0
-70 5 0
68 -70 6 0
-68 -70 -6 0
68 70 -5 -6 0
-68 70 -5 6 0
-71 72 0
-71 68 0
-71 -5 0
71 -72 5 -68 0
72 -5 68 0
-72 5 68 0
-73 68 0
72 -73 -5 0
-72 -73 5 0
72 73 5 -68 0
-72 73 -5 -68 0
-74 68 0
72 -74 5 0
-72 -74 -5 0
72 74 -5 -68 0
-72 74 5 -68 0
-75 72 0
-75 68 0
-75 -76 0
75 76 -72 -68 0
76 72 -68 0
-76 72 68 0
-77 72 0
76 -77 -68 0
-76 -77 68 0
76 77 -72 68 0
-76 77 -72 -68 0
-78 72 0
76 -78 68 0
-76 -78 -68 0
76 78 -72 -68 0
-76 78 -72 68 0
-79 80 0
-79 76 0
-79 -72 0
79 -80 72 -76 0
80 -72 76 0
-80 72 76 0
-81 76 0
80 -81 -72 0
-80 -81 72 0
80 81 72 -76 0
-80 81 -72 -76 0
-82 76 0
80 -82 72 0
-80 -82 -72 0
80 82 -72 -76 0
-80 82 72 -76 0
-83 80 0
-83 76 0
-83 -84 0
83 84 -80 -76 0
84 80 -76 0
-84 80 76 0
-85 80 0
84 -85 -76 0
-84 -85 76 0
84 85 -80 76 0
-84 85 -80 -76 0
-86 80 0
84 -86 76 0
-84 -86 -76 0
84 86 -80 -76 0
-84 86 -80 76 0
-87 80 0
-87 84 0
87 -80 -84 0
88 80 -84 0
88 -80 84 0
-88 80 84 0
-88 -80 -84 0
-89 90 0
-89 88 0
-89 -80 0
89 -90 80 -88 0
90 -80 88 0
-90 80 88 0
-91 88 0
90 -91 -80 0
-90 -91 80 0
90 91 80 -88 0
-90 91 -80 -88 0
-92 88 0
90 -92 80 0
-90 -92 -80 0
90 92 -80 -88 0
-90 92 80 -88 0
-93 90 0
-93 88 0
93 -90 -88 0
94 90 -88 0
94 -90 88 0
-94 90 88 0
-94 -90 -88 0
-95 7 0
-95 8 0
-95 -96 0
95 96 -7 -8 0
96 7 -8 0
-96 7 8 0
-97 7 0
96 -97 -8 0
-96 -97 8 0
96 97 -7 8 0
-96 97 -7 -8 0
-98 7 0
96 -98 8 0
-96 -98 -8 0
96 98 -7 -8 0
-96 98 -7 8 0
-99 100 0
-99 96 0
-99 -7 0
99 -100 7 -96 0
100 -7 96 0
-100 7 96 0
-101 96 0
100 -101 -7 0
-100 -101 7 0
100 101 7 -96 0
-100 101 -7 -96 0
-102 96 0
100 -102 7 0
-100 -102 -7 0
100 102 -7 -96 0
-100 102 7 -96 0
-103 100 0
-103 96 0
-103 -104 0
103 104 -100 -96 0
104 100 -96 0
-104 100 96 0
-105 100 0
104 -105 -96 0
-104 -105 96 0
104 105 -100 96 0
-104 105 -100 -96 0
-106 100 0
104 -106 96 0
-104 -106 -96 0
104 106 -100 -96 0
-104 106 -100 96 0
-107 108 0
-107 104 0
-107 -100 0
107 -108 100 -104 0
108 -100 104 0
-108 100 104 0
-109 104 0
108 -109 -100 0
-108 -109 100 0
108 109 100 -104 0
-108 109 -100 -104 0
-110 104 0
108 -110 100 0
-108 -110 -100 0
108 110 -100 -104 0
-108 110 100 -104 0
-111 108 0
-111 104 0
-111 -112 0
111 112 -108 -104 0
112 108 -104 0
-112 108 104 0
-113 108 0
112 -113 -104 0
-112 -113 104 0
112 113 -108 104 0
-112 113 -108 -104 0
-114 108 0
112 -114 104 0
-112 -114 -104 0
112 114 -108 -104 0
-112 114 -108 104 0
-115 108 0
-115 112 0
115 -108 -112 0
116 108 -112 0
116 -108 112 0
-116 108 112 0
-116 -108 -112 0
-117 118 0
-117 116 0
-117 -108 0
117 -118 108 -116 0
118 -108 116 0
-118 108 116 0
-119 116 0
118 -119 -108 0
-118 -119 108 0
118 119 108 -116 0
-118 119 -108 -116 0
-120 116 0
118 -120 108 0
-118 -120 -108 0
118 120 -108 -116 0
-118 120 108 -116 0
-121 118 0
-121 116 0
121 -118 -116 0
122 118 -116 0
122 -118 116 0
-122 118 116 0
-122 -118 -116 0
123 -10 0
-123 10 0
-124 9 0
-124 122 0
-124 118 -10 0
-124 -118 10 0
124 -9 118 10 -122 0
124 -9 -118 -10 -122 0
126 9 -118 0
126 -9 118 0
-126 9 118 0
-126 -9 -118 0
125 10 -122 0
125 -10 122 0
-125 10 122 0
-125 -10 -122 0
-127 126 0
-127 122 0
127 -126 -122 0
128 126 -122 0
128 -126 122 0
-128 126 122 0
-128 -126 -122 0
-129 130 0
-129 128 0
-129 -126 0
129 -130 126 -128 0
130 -126 128 0
-130 126 128 0
-131 128 0
130 -131 -126 0
-130 -131 126 0
130 131 126 -128 0
-130 131 -126 -128 0
-132 128 0
130 -132 126 0
-130 -132 -126 0
130 132 -126 -128 0
-130 132 126 -128 0
-133 130 0
-133 128 0
133 -130 -128 0
134 130 -128 0
134 -130 128 0
-134 130 128 0
-134 -130 -128 0
-135 130 0
-135 134 0
-135 -136 0
135 136 -130 -134 0
136 130 -134 0
-136 130 134 0
-137 130 0
136 -137 -134 0
-136 -137 134 0
136 137 -130 134 0
-136 137 -130 -134 0
-138 130 0
136 -138 134 0
-136 -138 -134 0
136 138 -130 -134 0
-136 138 -130 134 0
-139 140 0
-139 136 0
-139 -130 0
139 -140 130 -136 0
140 -130 136 0
-140 130 136 0
-141 136 0
140 -141 -130 0
-140 -141 130 0
140 141 130 -136 0
-140 141 -130 -136 0
-142 136 0
140 -142 130 0
-140 -142 -130 0
140 142 -130 -136 0
-140 142 130 -136 0
-143 140 0
-143 136 0
-143 -144 0
143 144 -140 -136 0
144 140 -136 0
-144 140 136 0
-145 140 0
144 -145 -136 0
-144 -145 136 0
144 145 -140 136 0
-144 145 -140 -136 0
-146 140 0
144 -146 136 0
-144 -146 -136 0
144 146 -140 -136 0
-144 146 -140 136 0
-147 148 0
-147 144 0
-147 -140 0
147 -148 140 -144 0
148 -140 144 0
-148 140 144 0
-149 144 0
148 -149 -140 0
-148 -149 140 0
148 149 140 -144 0
-148 149 -140 -144 0
-150 144 0
148 -150 140 0
-148 -150 -140 0
148 150 -140 -144 0
-148 150 140 -144 0
-151 148 0
-151 144 0
-151 -152 0
151 152 -148 -144 0
152 148 -144 0
-152 148 144 0
-153 148 0
152 -153 -144 0
-152 -153 144 0
152 153 -148 144 0
-152 153 -148 -144 0
-154 148 0
152 -154 144 0
-152 -154 -144 0
152 154 -148 -144 0
-152 154 -148 144 0
-155 148 0
-155 94 0
-155 90 -152 0
-155 -90 152 0
155 -148 90 152 -94 0
155 -148 -90 -152 -94 0
157 148 -90 0
157 -148 90 0
-157 148 90 0
-157 -148 -90 0
156 152 -94 0
156 -152 94 0
-156 152 94 0
-156 -152 -94 0
-158 157 0
-158 94 0
158 -157 -94 0
159 157 -94 0
159 -157 94 0
-159 157 94 0
-159 -157 -94 0
-160 161 0
-160 159 0
-160 -157 0
160 -161 157 -159 0
161 -157 159 0
-161 157 159 0
-162 159 0
161 -162 -157 0
-161 -162 157 0
161 162 157 -159 0
-161 162 -157 -159 0
-163 159 0
161 -163 157 0
-161 -163 -157 0
161 163 -157 -159 0
-161 163 157 -159 0
-164 161 0
-164 159 0
164 -161 -159 0
165 161 -159 0
165 -161 159 0
-165 161 159 0
-165 -161 -159 0
-166 161 0
-166 165 0
-166 -167 0
166 167 -161 -165 0
167 161 -165 0
-167 161 165 0
-168 161 0
167 -168 -165 0
-167 -168 165 0
167 168 -161 165 0
-167 168 -161 -165 0
-169 161 0
167 -169 165 0
-167 -169 -165 0
167 169 -161 -165 0
-167 169 -161 165 0
-170 171 0
-170 167 0
-170 -161 0
170 -171 161 -167 0
171 -161 167 0
-171 161 167 0
-172 167 0
171 -172 -161 0
-171 -172 161 0
171 172 161 -167 0
-171 172 -161 -167 0
-173 167 0
171 -173 161 0
-171 -173 -161 0
171 173 -161 -167 0
-171 173 161 -167 0
-174 171 0
-174 167 0
-174 -175 0
174 175 -171 -167 0
175 171 -167 0
-175 171 167 0
-176 171 0
175 -176 -167 0
-175 -176 167 0
175 176 -171 167 0
-175 176 -171 -167 0
-177 171 0
175 -177 167 0
-175 -177 -167 0
175 177 -171 -167 0
-175 177 -171 167 0
-178 179 0
-178 175 0
-178 -171 0
178 -179 171 -175 0
179 -171 175 0
-179 171 175 0
-180 175 0
179 -180 -171 0
-179 -180 171 0
179 180 171 -175 0
-179 180 -171 -175 0
-181 175 0
179 -181 171 0
-179 -181 -171 0
179 181 -171 -175 0
-179 181 171 -175 0
-182 179 0
-182 175 0
-182 -183 0
182 183 -179 -175 0
183 179 -175 0
-183 179 175 0
-184 179 0
183 -184 -175 0
-183 -184 175 0
183 184 -179 175 0
-183 184 -179 -175 0
-185 179 0
183 -185 175 0
-183 -185 -175 0
183 185 -179 -175 0
-183 185 -179 175 0
-186 179 0
-186 66 0
-186 62 -183 0
-186 -62 183 0
186 -179 62 183 -66 0
186 -179 -62 -183 -66 0
188 179 -62 0
188 -179 62 0
-188 179 62 0
-188 -179 -62 0
187 183 -66 0
187 -183 66 0
-187 183 66 0
-187 -183 -66 0
-189 188 0
-189 66 0
189 -188 -66 0
190 188 -66 0
190 -188 66 0
-190 188 66 0
-190 -188 -66 0
-191 192 0
-191 190 0
-191 -188 0
191 -192 188 -190 0
192 -188 190 0
-192 188 190 0
-193 190 0
192 -193 -188 0
-192 -193 188 0
192 193 188 -190 0
-192 193 -188 -190 0
-194 190 0
192 -194 188 0
-192 -194 -188 0
192 194 -188 -190 0
-192 194 188 -190 0
-195 192 0
-195 190 0
195 -192 -190 0
196 192 -190 0
196 -192 190 0
-196 192 190 0
-196 -192 -190 0
-197 192 0
-197 196 0
-197 -198 0
197 198 -192 -196 0
198 192 -196 0
-198 192 196 0
-199 192 0
198 -199 -196 0
-198 -199 196 0
198 199 -192 196 0
-198 199 -192 -196 0
-200 192 0
198 -200 196 0
-198 -200 -196 0
198 200 -192 -196 0
-198 200 -192 196 0
-201 202 0
-201 198 0
-201 -192 0
201 -202 192 -198 0
202 -192 198 0
-202 192 198 0
-203 198 0
202 -203 -192 0
-202 -203 192 0
202 203 192 -198 0
-202 203 -192 -198 0
-204 198 0
202 -204 192 0
-202 -204 -192 0
202 204 -192 -198 0
-202 204 192 -198 0
-205 202 0
-205 198 0
-205 -206 0
205 206 -202 -198 0
206 202 -198 0
-206 202 198 0
-207 202 0
206 -207 -198 0
-206 -207 198 0
206 207 -202 198 0
-206 207 -202 -198 0
-208 202 0
206 -208 198 0
-206 -208 -198 0
206 208 -202 -198 0
-206 208 -202 198 0
-209 210 0
-209 206 0
-209 -202 0
209 -210 202 -206 0
210 -202 206 0
-210 202 206 0
-211 206 0
210 -211 -202 0
-210 -211 202 0
210 211 202 -206 0
-210 211 -202 -206 0
-212 206 0
210 -212 202 0
-210 -212 -202 0
210 212 -202 -206 0
-210 212 202 -206 0
-213 210 0
-213 206 0
-213 -214 0
213 214 -210 -206 0
214 210 -206 0
-214 210 206 0
-215 210 0
214 -215 -206 0
-214 -215 206 0
214 215 -210 206 0
-214 215 -210 -206 0
-216 210 0
214 -216 206 0
-214 -216 -206 0
214 216 -210 -206 0
-214 216 -210 206 0
-217 210 0
-217 38 0
-217 34 -214 0
-217 -34 214 0
217 -210 34 214 -38 0
217 -210 -34 -214 -38 0
219 210 -34 0
219 -210 34 0
-219 210 34 0
-219 -210 -34 0
218 214 -38 0
218 -214 38 0
-218 214 38 0
-218 -214 -38 0
-220 219 0
-220 38 0
220 -219 -38 0
221 219 -38 0
221 -219 38 0
-221 219 38 0
-221 -219 -38 0
-222 223 0
-222 221 0
-222 -219 0
222 -223 219 -221 0
223 -219 221 0
-223 219 221 0
-224 221 0
223 -224 -219 0
-223 -224 219 0
223 224 219 -221 0
-223 224 -219 -221 0
-225 221 0
223 -225 219 0
-223 -225 -219 0
223 225 -219 -221 0
-223 225 219 -221 0
-226 223 0
-226 221 0
226 -223 -221 0
227 223 -221 0
227 -223 221 0
-227 223 221 0
-227 -223 -221 0
-228 223 0
-228 227 0
-228 -229 0
228 229 -223 -227 0
229 223 -227 0
-229 223 227 0
-230 223 0
229 -230 -227 0
-229 -230 227 0
229 230 -223 227 0
-229 230 -223 -227 0
-231 223 0
229 -231 227 0
-229 -231 -227 0
229 231 -223 -227 0
-229 231 -223 227 0
-232 233 0
-232 229 0
-232 -223 0
232 -233 223 -229 0
233 -223 229 0
-233 223 229 0
-234 229 0
233 -234 -223 0
-233 -234 223 0
233 234 223 -229 0
-233 234 -223 -229 0
-235 229 0
233 -235 223 0
-233 -235 -223 0
233 235 -223 -229 0
-233 235 223 -229 0
-236 233 0
-236 229 0
-236 -237 0
236 237 -233 -229 0
237 233 -229 0
-237 233 229 0
-238 233 0
237 -238 -229 0
-237 -238 229 0
237 238 -233 229 0
-237 238 -233 -229 0
-239 233 0
237 -239 229 0
-237 -239 -229 0
237 239 -233 -229 0
-237 239 -233 229 0
-240 241 0
-240 237 0
-240 -233 0
240 -241 233 -237 0
241 -233 237 0
-241 233 237 0
-242 237 0
241 -242 -233 0
-241 -242 233 0
241 242 233 -237 0
-241 242 -233 -237 0
-243 237 0
241 -243 233 0
-241 -243 -233 0
241 243 -233 -237 0
-241 243 233 -237 0
-244 241 0
-244 237 0
-244 -245 0
244 245 -241 -237 0
245 241 -237 0
-245 241 237 0
-246 241 0
245 -246 -237 0
-245 -246 237 0
245 246 -241 237 0
-245 246 -241 -237 0
-247 241 0
245 -247 237 0
-245 -247 -237 0
245 247 -241 -237 0
-245 247 -241 237 0
-248 148 0
-248 125 0
-248 9 -156 0
-248 -9 156 0
248 -148 9 156 -125 0
248 -148 -9 -156 -125 0
250 148 -9 0
250 -148 9 0
-250 148 9 0
-250 -148 -9 0
249 156 -125 0
249 -156 125 0
-249 156 125 0
-249 -156 -125 0
-251 179 0
-251 249 0
-251 148 -187 0
-251 -148 187 0
251 -179 148 187 -249 0
251 -179 -148 -187 -249 0
253 179 -148 0
253 -179 148 0
-253 179 148 0
-253 -179 -148 0
252 187 -249 0
252 -187 249 0
-252 187 249 0
-252 -187 -249 0
-254 210 0
-254 252 0
-254 179 -218 0
-254 -179 218 0
254 -210 179 218 -252 0
254 -210 -179 -218 -252 0
256 210 -179 0
256 -210 179 0
-256 210 179 0
-256 -210 -179 0
255 218 -252 0
255 -218 252 0
-255 218 252 0
-255 -218 -252 0
-257 241 0
-257 255 0
-257 210 -245 0
-257 -210 245 0
257 -241 210 245 -255 0
257 -241 -210 -245 -255 0
259 241 -210 0
259 -241 210 0
-259 241 210 0
-259 -241 -210 0
258 245 -255 0
258 -245 255 0
-258 245 255 0
-258 -245 -255 0
-241 0
-259 0
-255 0
-256 0
-252 0
-253 0
-249 0
-250 0
-125 0
